p cnf 200 1110
-101 44 0
-101 99 0
-101 40 0
-101 88 0
-101 -6 0
-101 59 0
-101 47 0
-101 51 0
-101 -64 0
-101 -17 0
101 -44 -99 -40 -88 6 -59 -47 -51 64 17 0
-102 -30 0
-102 -40 0
-102 31 0
-102 53 0
-102 -71 0
-102 -50 0
-102 -17 0
-102 63 0
-102 -96 0
-102 67 0
102 30 40 -31 -53 71 50 17 -63 96 -67 0
-103 91 0
-103 25 0
-103 57 0
-103 35 0
-103 -17 0
-103 -24 0
-103 36 0
-103 42 0
-103 -89 0
-103 71 0
103 -91 -25 -57 -35 17 24 -36 -42 89 -71 0
-104 47 0
-104 9 0
-104 36 0
-104 98 0
-104 14 0
-104 -25 0
-104 22 0
-104 7 0
-104 60 0
-104 -6 0
104 -47 -9 -36 -98 -14 25 -22 -7 -60 6 0
-105 86 0
-105 -100 0
-105 -18 0
-105 -77 0
-105 55 0
-105 -74 0
-105 32 0
-105 14 0
-105 -83 0
-105 -7 0
105 -86 100 18 77 -55 74 -32 -14 83 7 0
-106 -33 0
-106 26 0
-106 11 0
-106 9 0
-106 75 0
-106 2 0
-106 -73 0
-106 -28 0
-106 52 0
-106 -25 0
106 33 -26 -11 -9 -75 -2 73 28 -52 25 0
-107 81 0
-107 47 0
-107 -66 0
-107 -85 0
-107 4 0
-107 -3 0
-107 -99 0
-107 71 0
-107 55 0
-107 -2 0
107 -81 -47 66 85 -4 3 99 -71 -55 2 0
-108 32 0
-108 65 0
-108 80 0
-108 61 0
-108 66 0
-108 -34 0
-108 75 0
-108 73 0
-108 -72 0
-108 78 0
108 -32 -65 -80 -61 -66 34 -75 -73 72 -78 0
-109 -62 0
-109 17 0
-109 -82 0
-109 -46 0
-109 41 0
-109 -14 0
-109 73 0
-109 1 0
-109 -35 0
-109 -74 0
109 62 -17 82 46 -41 14 -73 -1 35 74 0
-110 91 0
-110 -21 0
-110 -10 0
-110 9 0
-110 59 0
-110 -81 0
-110 6 0
-110 2 0
-110 -11 0
-110 48 0
110 -91 21 10 -9 -59 81 -6 -2 11 -48 0
101 102 103 104 105 106 107 108 109 110 0
-111 -49 0
-111 93 0
-111 45 0
-111 63 0
-111 51 0
-111 -68 0
-111 84 0
-111 33 0
-111 -30 0
-111 41 0
111 49 -93 -45 -63 -51 68 -84 -33 30 -41 0
-112 20 0
-112 11 0
-112 71 0
-112 88 0
-112 -46 0
-112 8 0
-112 60 0
-112 -96 0
-112 -91 0
-112 -74 0
112 -20 -11 -71 -88 46 -8 -60 96 91 74 0
-113 29 0
-113 32 0
-113 58 0
-113 -52 0
-113 -8 0
-113 -61 0
-113 -71 0
-113 -16 0
-113 81 0
-113 -34 0
113 -29 -32 -58 52 8 61 71 16 -81 34 0
-114 74 0
-114 -17 0
-114 -94 0
-114 71 0
-114 64 0
-114 98 0
-114 -3 0
-114 78 0
-114 21 0
-114 -73 0
114 -74 17 94 -71 -64 -98 3 -78 -21 73 0
-115 -23 0
-115 -20 0
-115 39 0
-115 -56 0
-115 13 0
-115 36 0
-115 -97 0
-115 43 0
-115 7 0
-115 34 0
115 23 20 -39 56 -13 -36 97 -43 -7 -34 0
-116 21 0
-116 55 0
-116 14 0
-116 -53 0
-116 -68 0
-116 -87 0
-116 75 0
-116 37 0
-116 18 0
-116 83 0
116 -21 -55 -14 53 68 87 -75 -37 -18 -83 0
-117 -79 0
-117 -65 0
-117 -27 0
-117 -16 0
-117 60 0
-117 26 0
-117 -18 0
-117 33 0
-117 -37 0
-117 -38 0
117 79 65 27 16 -60 -26 18 -33 37 38 0
-118 -65 0
-118 52 0
-118 93 0
-118 -53 0
-118 -74 0
-118 13 0
-118 -72 0
-118 -94 0
-118 -79 0
-118 49 0
118 65 -52 -93 53 74 -13 72 94 79 -49 0
-119 8 0
-119 -66 0
-119 -38 0
-119 96 0
-119 77 0
-119 40 0
-119 70 0
-119 -7 0
-119 -100 0
-119 59 0
119 -8 66 38 -96 -77 -40 -70 7 100 -59 0
-120 -76 0
-120 -82 0
-120 91 0
-120 -87 0
-120 -98 0
-120 27 0
-120 -47 0
-120 -79 0
-120 -55 0
-120 4 0
120 76 82 -91 87 98 -27 47 79 55 -4 0
111 112 113 114 115 116 117 118 119 120 0
-121 -5 0
-121 81 0
-121 -76 0
-121 -71 0
-121 -89 0
-121 78 0
-121 -85 0
-121 18 0
-121 -68 0
-121 -87 0
121 5 -81 76 71 89 -78 85 -18 68 87 0
-122 -13 0
-122 11 0
-122 68 0
-122 82 0
-122 98 0
-122 3 0
-122 40 0
-122 8 0
-122 96 0
-122 -39 0
122 13 -11 -68 -82 -98 -3 -40 -8 -96 39 0
-123 80 0
-123 -19 0
-123 5 0
-123 -98 0
-123 -46 0
-123 -20 0
-123 27 0
-123 30 0
-123 -87 0
-123 62 0
123 -80 19 -5 98 46 20 -27 -30 87 -62 0
-124 66 0
-124 -27 0
-124 -44 0
-124 53 0
-124 -81 0
-124 -17 0
-124 93 0
-124 56 0
-124 -69 0
-124 10 0
124 -66 27 44 -53 81 17 -93 -56 69 -10 0
-125 -73 0
-125 -74 0
-125 -29 0
-125 -78 0
-125 55 0
-125 -24 0
-125 -58 0
-125 92 0
-125 -1 0
-125 49 0
125 73 74 29 78 -55 24 58 -92 1 -49 0
-126 -80 0
-126 -39 0
-126 -32 0
-126 -4 0
-126 -99 0
-126 -34 0
-126 26 0
-126 -33 0
-126 15 0
-126 22 0
126 80 39 32 4 99 34 -26 33 -15 -22 0
-127 -54 0
-127 -71 0
-127 76 0
-127 64 0
-127 -60 0
-127 -19 0
-127 1 0
-127 -84 0
-127 10 0
-127 -92 0
127 54 71 -76 -64 60 19 -1 84 -10 92 0
-128 44 0
-128 -74 0
-128 19 0
-128 24 0
-128 -4 0
-128 -32 0
-128 95 0
-128 -56 0
-128 46 0
-128 -38 0
128 -44 74 -19 -24 4 32 -95 56 -46 38 0
-129 51 0
-129 -44 0
-129 -84 0
-129 -4 0
-129 57 0
-129 7 0
-129 -68 0
-129 -86 0
-129 -39 0
-129 16 0
129 -51 44 84 4 -57 -7 68 86 39 -16 0
-130 37 0
-130 -47 0
-130 -11 0
-130 3 0
-130 56 0
-130 -17 0
-130 -29 0
-130 4 0
-130 -32 0
-130 55 0
130 -37 47 11 -3 -56 17 29 -4 32 -55 0
121 122 123 124 125 126 127 128 129 130 0
-131 36 0
-131 100 0
-131 37 0
-131 -40 0
-131 -4 0
-131 6 0
-131 54 0
-131 -68 0
-131 20 0
-131 39 0
131 -36 -100 -37 40 4 -6 -54 68 -20 -39 0
-132 -22 0
-132 76 0
-132 88 0
-132 -84 0
-132 -4 0
-132 -34 0
-132 -75 0
-132 19 0
-132 -86 0
-132 26 0
132 22 -76 -88 84 4 34 75 -19 86 -26 0
-133 29 0
-133 98 0
-133 -26 0
-133 71 0
-133 3 0
-133 1 0
-133 -41 0
-133 73 0
-133 62 0
-133 92 0
133 -29 -98 26 -71 -3 -1 41 -73 -62 -92 0
-134 11 0
-134 69 0
-134 -67 0
-134 41 0
-134 92 0
-134 54 0
-134 100 0
-134 81 0
-134 89 0
-134 -19 0
134 -11 -69 67 -41 -92 -54 -100 -81 -89 19 0
-135 89 0
-135 12 0
-135 -96 0
-135 -14 0
-135 -64 0
-135 100 0
-135 -95 0
-135 71 0
-135 69 0
-135 -54 0
135 -89 -12 96 14 64 -100 95 -71 -69 54 0
-136 9 0
-136 -94 0
-136 -29 0
-136 88 0
-136 6 0
-136 27 0
-136 99 0
-136 -72 0
-136 67 0
-136 -21 0
136 -9 94 29 -88 -6 -27 -99 72 -67 21 0
-137 -2 0
-137 -14 0
-137 -39 0
-137 -90 0
-137 -24 0
-137 53 0
-137 87 0
-137 -96 0
-137 -69 0
-137 -15 0
137 2 14 39 90 24 -53 -87 96 69 15 0
-138 51 0
-138 31 0
-138 12 0
-138 -60 0
-138 2 0
-138 -81 0
-138 20 0
-138 86 0
-138 73 0
-138 28 0
138 -51 -31 -12 60 -2 81 -20 -86 -73 -28 0
-139 -44 0
-139 3 0
-139 19 0
-139 -90 0
-139 -59 0
-139 -81 0
-139 14 0
-139 -23 0
-139 -40 0
-139 96 0
139 44 -3 -19 90 59 81 -14 23 40 -96 0
-140 -40 0
-140 -13 0
-140 -27 0
-140 -80 0
-140 31 0
-140 75 0
-140 69 0
-140 23 0
-140 -9 0
-140 39 0
140 40 13 27 80 -31 -75 -69 -23 9 -39 0
131 132 133 134 135 136 137 138 139 140 0
-141 -72 0
-141 -98 0
-141 18 0
-141 -26 0
-141 66 0
-141 -44 0
-141 -73 0
-141 -95 0
-141 -78 0
-141 -28 0
141 72 98 -18 26 -66 44 73 95 78 28 0
-142 47 0
-142 -30 0
-142 23 0
-142 63 0
-142 -29 0
-142 71 0
-142 84 0
-142 -56 0
-142 82 0
-142 -3 0
142 -47 30 -23 -63 29 -71 -84 56 -82 3 0
-143 -24 0
-143 5 0
-143 76 0
-143 50 0
-143 -10 0
-143 -12 0
-143 -73 0
-143 2 0
-143 -17 0
-143 -44 0
143 24 -5 -76 -50 10 12 73 -2 17 44 0
-144 -90 0
-144 -46 0
-144 -53 0
-144 75 0
-144 3 0
-144 -39 0
-144 -40 0
-144 -50 0
-144 -29 0
-144 -18 0
144 90 46 53 -75 -3 39 40 50 29 18 0
-145 65 0
-145 -77 0
-145 98 0
-145 -27 0
-145 24 0
-145 6 0
-145 72 0
-145 -55 0
-145 -43 0
-145 -74 0
145 -65 77 -98 27 -24 -6 -72 55 43 74 0
-146 -90 0
-146 74 0
-146 -70 0
-146 91 0
-146 -89 0
-146 -21 0
-146 35 0
-146 54 0
-146 76 0
-146 -29 0
146 90 -74 70 -91 89 21 -35 -54 -76 29 0
-147 51 0
-147 66 0
-147 -80 0
-147 -10 0
-147 30 0
-147 -87 0
-147 -75 0
-147 -68 0
-147 -38 0
-147 7 0
147 -51 -66 80 10 -30 87 75 68 38 -7 0
-148 52 0
-148 57 0
-148 -45 0
-148 -48 0
-148 -33 0
-148 88 0
-148 -90 0
-148 -95 0
-148 -87 0
-148 83 0
148 -52 -57 45 48 33 -88 90 95 87 -83 0
-149 -7 0
-149 -22 0
-149 -46 0
-149 34 0
-149 57 0
-149 -91 0
-149 74 0
-149 -36 0
-149 -10 0
-149 -90 0
149 7 22 46 -34 -57 91 -74 36 10 90 0
-150 -98 0
-150 17 0
-150 49 0
-150 2 0
-150 24 0
-150 38 0
-150 37 0
-150 44 0
-150 18 0
-150 -10 0
150 98 -17 -49 -2 -24 -38 -37 -44 -18 10 0
141 142 143 144 145 146 147 148 149 150 0
-151 -87 0
-151 7 0
-151 16 0
-151 -38 0
-151 -54 0
-151 18 0
-151 -30 0
-151 78 0
-151 86 0
-151 70 0
151 87 -7 -16 38 54 -18 30 -78 -86 -70 0
-152 -12 0
-152 -95 0
-152 13 0
-152 67 0
-152 -99 0
-152 -9 0
-152 -16 0
-152 37 0
-152 -86 0
-152 1 0
152 12 95 -13 -67 99 9 16 -37 86 -1 0
-153 -15 0
-153 -19 0
-153 38 0
-153 86 0
-153 -5 0
-153 77 0
-153 -94 0
-153 75 0
-153 25 0
-153 -6 0
153 15 19 -38 -86 5 -77 94 -75 -25 6 0
-154 75 0
-154 -11 0
-154 -34 0
-154 -38 0
-154 -57 0
-154 -95 0
-154 3 0
-154 -24 0
-154 -64 0
-154 7 0
154 -75 11 34 38 57 95 -3 24 64 -7 0
-155 87 0
-155 -16 0
-155 44 0
-155 53 0
-155 -65 0
-155 -58 0
-155 -69 0
-155 -63 0
-155 -13 0
-155 -81 0
155 -87 16 -44 -53 65 58 69 63 13 81 0
-156 -83 0
-156 64 0
-156 53 0
-156 -88 0
-156 82 0
-156 96 0
-156 4 0
-156 36 0
-156 -26 0
-156 -95 0
156 83 -64 -53 88 -82 -96 -4 -36 26 95 0
-157 38 0
-157 -87 0
-157 -32 0
-157 21 0
-157 69 0
-157 -74 0
-157 -18 0
-157 49 0
-157 -53 0
-157 64 0
157 -38 87 32 -21 -69 74 18 -49 53 -64 0
-158 -74 0
-158 4 0
-158 -60 0
-158 28 0
-158 88 0
-158 70 0
-158 27 0
-158 -98 0
-158 -63 0
-158 -89 0
158 74 -4 60 -28 -88 -70 -27 98 63 89 0
-159 31 0
-159 -62 0
-159 -27 0
-159 20 0
-159 40 0
-159 -47 0
-159 -97 0
-159 -33 0
-159 -52 0
-159 -85 0
159 -31 62 27 -20 -40 47 97 33 52 85 0
-160 -33 0
-160 91 0
-160 -96 0
-160 -83 0
-160 -75 0
-160 4 0
-160 22 0
-160 21 0
-160 38 0
-160 -46 0
160 33 -91 96 83 75 -4 -22 -21 -38 46 0
151 152 153 154 155 156 157 158 159 160 0
-161 78 0
-161 81 0
-161 -4 0
-161 52 0
-161 23 0
-161 -82 0
-161 -48 0
-161 -61 0
-161 -64 0
-161 30 0
161 -78 -81 4 -52 -23 82 48 61 64 -30 0
-162 57 0
-162 -9 0
-162 66 0
-162 93 0
-162 97 0
-162 20 0
-162 -63 0
-162 80 0
-162 -11 0
-162 2 0
162 -57 9 -66 -93 -97 -20 63 -80 11 -2 0
-163 -7 0
-163 -50 0
-163 42 0
-163 -97 0
-163 -19 0
-163 -71 0
-163 -52 0
-163 -45 0
-163 -13 0
-163 -30 0
163 7 50 -42 97 19 71 52 45 13 30 0
-164 97 0
-164 10 0
-164 -33 0
-164 -40 0
-164 -60 0
-164 -37 0
-164 90 0
-164 78 0
-164 -20 0
-164 -6 0
164 -97 -10 33 40 60 37 -90 -78 20 6 0
-165 -10 0
-165 74 0
-165 52 0
-165 42 0
-165 73 0
-165 25 0
-165 90 0
-165 -31 0
-165 91 0
-165 55 0
165 10 -74 -52 -42 -73 -25 -90 31 -91 -55 0
-166 79 0
-166 11 0
-166 -76 0
-166 22 0
-166 -66 0
-166 12 0
-166 -98 0
-166 -82 0
-166 65 0
-166 -2 0
166 -79 -11 76 -22 66 -12 98 82 -65 2 0
-167 -43 0
-167 60 0
-167 -46 0
-167 -75 0
-167 86 0
-167 33 0
-167 -18 0
-167 25 0
-167 -30 0
-167 23 0
167 43 -60 46 75 -86 -33 18 -25 30 -23 0
-168 48 0
-168 75 0
-168 -70 0
-168 76 0
-168 46 0
-168 -20 0
-168 -74 0
-168 24 0
-168 99 0
-168 10 0
168 -48 -75 70 -76 -46 20 74 -24 -99 -10 0
-169 56 0
-169 -87 0
-169 -75 0
-169 60 0
-169 59 0
-169 -88 0
-169 -50 0
-169 39 0
-169 19 0
-169 95 0
169 -56 87 75 -60 -59 88 50 -39 -19 -95 0
-170 61 0
-170 64 0
-170 -74 0
-170 -55 0
-170 -46 0
-170 -76 0
-170 -92 0
-170 80 0
-170 47 0
-170 22 0
170 -61 -64 74 55 46 76 92 -80 -47 -22 0
161 162 163 164 165 166 167 168 169 170 0
-171 41 0
-171 39 0
-171 -98 0
-171 25 0
-171 -5 0
-171 47 0
-171 -45 0
-171 12 0
-171 91 0
-171 -84 0
171 -41 -39 98 -25 5 -47 45 -12 -91 84 0
-172 -68 0
-172 -98 0
-172 78 0
-172 57 0
-172 6 0
-172 51 0
-172 45 0
-172 65 0
-172 -31 0
-172 91 0
172 68 98 -78 -57 -6 -51 -45 -65 31 -91 0
-173 24 0
-173 36 0
-173 -3 0
-173 27 0
-173 73 0
-173 -2 0
-173 -66 0
-173 64 0
-173 67 0
-173 54 0
173 -24 -36 3 -27 -73 2 66 -64 -67 -54 0
-174 -96 0
-174 -91 0
-174 74 0
-174 16 0
-174 -13 0
-174 -10 0
-174 -88 0
-174 99 0
-174 66 0
-174 45 0
174 96 91 -74 -16 13 10 88 -99 -66 -45 0
-175 -33 0
-175 23 0
-175 10 0
-175 54 0
-175 -31 0
-175 32 0
-175 -45 0
-175 -20 0
-175 82 0
-175 -77 0
175 33 -23 -10 -54 31 -32 45 20 -82 77 0
-176 -12 0
-176 -24 0
-176 33 0
-176 -13 0
-176 14 0
-176 46 0
-176 -23 0
-176 76 0
-176 57 0
-176 53 0
176 12 24 -33 13 -14 -46 23 -76 -57 -53 0
-177 7 0
-177 55 0
-177 -74 0
-177 42 0
-177 63 0
-177 95 0
-177 -92 0
-177 52 0
-177 -60 0
-177 13 0
177 -7 -55 74 -42 -63 -95 92 -52 60 -13 0
-178 -45 0
-178 2 0
-178 8 0
-178 53 0
-178 46 0
-178 -63 0
-178 49 0
-178 74 0
-178 -87 0
-178 41 0
178 45 -2 -8 -53 -46 63 -49 -74 87 -41 0
-179 -89 0
-179 -31 0
-179 64 0
-179 62 0
-179 -84 0
-179 -92 0
-179 -21 0
-179 10 0
-179 19 0
-179 13 0
179 89 31 -64 -62 84 92 21 -10 -19 -13 0
-180 39 0
-180 14 0
-180 91 0
-180 65 0
-180 92 0
-180 49 0
-180 42 0
-180 36 0
-180 2 0
-180 -15 0
180 -39 -14 -91 -65 -92 -49 -42 -36 -2 15 0
171 172 173 174 175 176 177 178 179 180 0
-181 47 0
-181 54 0
-181 -91 0
-181 -60 0
-181 -78 0
-181 -7 0
-181 -28 0
-181 -87 0
-181 -57 0
-181 -50 0
181 -47 -54 91 60 78 7 28 87 57 50 0
-182 5 0
-182 -24 0
-182 46 0
-182 -82 0
-182 77 0
-182 59 0
-182 -25 0
-182 81 0
-182 41 0
-182 -50 0
182 -5 24 -46 82 -77 -59 25 -81 -41 50 0
-183 -23 0
-183 -81 0
-183 -34 0
-183 69 0
-183 22 0
-183 4 0
-183 -77 0
-183 -24 0
-183 42 0
-183 93 0
183 23 81 34 -69 -22 -4 77 24 -42 -93 0
-184 -61 0
-184 -40 0
-184 -17 0
-184 42 0
-184 58 0
-184 -30 0
-184 -80 0
-184 32 0
-184 -13 0
-184 25 0
184 61 40 17 -42 -58 30 80 -32 13 -25 0
-185 3 0
-185 32 0
-185 -86 0
-185 -24 0
-185 -60 0
-185 -37 0
-185 -80 0
-185 97 0
-185 77 0
-185 -66 0
185 -3 -32 86 24 60 37 80 -97 -77 66 0
-186 -24 0
-186 -38 0
-186 65 0
-186 40 0
-186 -37 0
-186 19 0
-186 -10 0
-186 -62 0
-186 48 0
-186 58 0
186 24 38 -65 -40 37 -19 10 62 -48 -58 0
-187 85 0
-187 -51 0
-187 -22 0
-187 97 0
-187 -4 0
-187 -88 0
-187 21 0
-187 100 0
-187 -2 0
-187 -58 0
187 -85 51 22 -97 4 88 -21 -100 2 58 0
-188 -58 0
-188 -80 0
-188 50 0
-188 83 0
-188 -45 0
-188 27 0
-188 8 0
-188 -86 0
-188 -11 0
-188 -26 0
188 58 80 -50 -83 45 -27 -8 86 11 26 0
-189 58 0
-189 94 0
-189 -2 0
-189 -86 0
-189 12 0
-189 -90 0
-189 -52 0
-189 50 0
-189 4 0
-189 71 0
189 -58 -94 2 86 -12 90 52 -50 -4 -71 0
-190 -35 0
-190 -56 0
-190 -50 0
-190 43 0
-190 -38 0
-190 71 0
-190 12 0
-190 92 0
-190 55 0
-190 21 0
190 35 56 50 -43 38 -71 -12 -92 -55 -21 0
181 182 183 184 185 186 187 188 189 190 0
-191 28 0
-191 100 0
-191 -13 0
-191 62 0
-191 5 0
-191 40 0
-191 -3 0
-191 -1 0
-191 -67 0
-191 -30 0
191 -28 -100 13 -62 -5 -40 3 1 67 30 0
-192 -52 0
-192 -81 0
-192 -90 0
-192 -87 0
-192 41 0
-192 53 0
-192 -88 0
-192 -72 0
-192 5 0
-192 -57 0
192 52 81 90 87 -41 -53 88 72 -5 57 0
-193 -94 0
-193 -68 0
-193 9 0
-193 90 0
-193 -69 0
-193 95 0
-193 48 0
-193 34 0
-193 -37 0
-193 -80 0
193 94 68 -9 -90 69 -95 -48 -34 37 80 0
-194 23 0
-194 -79 0
-194 73 0
-194 -95 0
-194 -46 0
-194 20 0
-194 -89 0
-194 51 0
-194 -85 0
-194 7 0
194 -23 79 -73 95 46 -20 89 -51 85 -7 0
-195 70 0
-195 -24 0
-195 15 0
-195 -72 0
-195 -81 0
-195 -10 0
-195 50 0
-195 88 0
-195 -96 0
-195 -36 0
195 -70 24 -15 72 81 10 -50 -88 96 36 0
-196 29 0
-196 21 0
-196 82 0
-196 58 0
-196 -60 0
-196 32 0
-196 -95 0
-196 67 0
-196 -2 0
-196 -18 0
196 -29 -21 -82 -58 60 -32 95 -67 2 18 0
-197 -53 0
-197 -30 0
-197 10 0
-197 -70 0
-197 -79 0
-197 28 0
-197 81 0
-197 -42 0
-197 14 0
-197 -56 0
197 53 30 -10 70 79 -28 -81 42 -14 56 0
-198 -41 0
-198 -58 0
-198 -34 0
-198 -73 0
-198 -97 0
-198 -50 0
-198 49 0
-198 15 0
-198 6 0
-198 -39 0
198 41 58 34 73 97 50 -49 -15 -6 39 0
-199 68 0
-199 46 0
-199 -48 0
-199 -66 0
-199 -64 0
-199 25 0
-199 -62 0
-199 -35 0
-199 34 0
-199 -28 0
199 -68 -46 48 66 64 -25 62 35 -34 28 0
-200 -32 0
-200 59 0
-200 38 0
-200 10 0
-200 -88 0
-200 -17 0
-200 -55 0
-200 51 0
-200 -28 0
-200 -13 0
200 32 -59 -38 -10 88 17 55 -51 28 13 0
191 192 193 194 195 196 197 198 199 200 0
